TCS_Benchmarks/redos_fix/corpus2_output_distinct_4925_4924_10_0.smt2
(set-logic QF_S)
(declare-const x String)
(assert (str.in.re x (re.inter  (re.++ (re.* (re.union (re.range "\u{09}" "\u{0d}") (re.range "\u{20}" "\u{20}") (re.range "\u{85}" "\u{85}") (re.range "\u{a0}" "\u{a0}")) ) (re.*  (re.union  (str.to.re "\u{20}") (re.union (re.range "\u{30}" "\u{39}") (re.union  (str.to.re "\u{2c}") (re.union  (str.to.re "\u{3d}") (re.range "\u{61}" "\u{7a}"))))) ))  (re.++ (re.* (re.union (re.range "\u{09}" "\u{0d}") (re.range "\u{20}" "\u{20}") (re.range "\u{85}" "\u{85}") (re.range "\u{a0}" "\u{a0}")) ) (re.++  (re.++  (str.to_re "\u{0A}") (re.++  (str.to.re "\u{20}") (re.++  (str.to.re "\u{20}") (re.++  (str.to.re "\u{20}") (re.++  (str.to.re "\u{20}") (re.++  (str.to.re "\u{20}") (re.++  (str.to.re "\u{20}") (re.++  (str.to.re "\u{20}") (re.++  (str.to.re "\u{20}") (re.++  (str.to.re "\u{20}") (re.++  (str.to.re "\u{20}") (re.++  (str.to.re "\u{20}") (re.++  (str.to.re "\u{20}") (re.++  (str.to.re "\u{20}") (re.++  (str.to.re "\u{20}") (re.++  (str.to.re "\u{20}") (re.++  (str.to.re "\u{20}") (re.++  (str.to.re "\u{20}") (re.++  (str.to.re "\u{20}") (re.++  (str.to.re "\u{20}") (re.++  (str.to.re "\u{20}") (re.++  (str.to.re "\u{20}") (re.++  (str.to.re "\u{20}") (re.++  (str.to.re "\u{20}") (re.++  (str.to.re "\u{20}") (re.++  (str.to.re "\u{20}") (re.++  (str.to.re "\u{20}") (re.++  (str.to.re "\u{20}") (re.++  (str.to.re "\u{20}") (re.++  (str.to.re "\u{20}") (re.++  (str.to.re "\u{20}") (re.++  (str.to.re "\u{20}") (re.++  (str.to.re "\u{20}") (re.++  (str.to.re "\u{20}") (re.++  (str.to.re "\u{20}") (re.++  (str.to.re "\u{20}") (re.++  (str.to.re "\u{20}") (re.++  (str.to.re "\u{20}") (re.++ (re.*  (re.union (re.range "\u{30}" "\u{39}") (re.union  (str.to.re "\u{2e}") (re.union (re.range "\u{61}" "\u{7a}")  (str.to.re "\u{5f}")))) ) (re.++ (re.* (re.union (re.range "\u{09}" "\u{0d}") (re.range "\u{20}" "\u{20}") (re.range "\u{85}" "\u{85}") (re.range "\u{a0}" "\u{a0}")) ) (re.++  (str.to_re "\u{0A}") (re.++  (str.to.re "\u{20}") (re.++  (str.to.re "\u{20}") (re.++  (str.to.re "\u{20}") (re.++  (str.to.re "\u{20}") (re.++  (str.to.re "\u{20}") (re.++  (str.to.re "\u{20}") (re.++  (str.to.re "\u{20}") (re.++  (str.to.re "\u{20}") (re.++  (str.to.re "\u{20}") (re.++  (str.to.re "\u{20}") (re.++  (str.to.re "\u{20}") (re.++  (str.to.re "\u{20}") (re.++  (str.to.re "\u{20}") (re.++  (str.to.re "\u{20}") (re.++  (str.to.re "\u{20}") (re.++  (str.to.re "\u{20}") (re.++  (str.to.re "\u{20}") (re.++  (str.to.re "\u{20}") (re.++  (str.to.re "\u{20}") (re.++  (str.to.re "\u{20}") (re.++  (str.to.re "\u{20}") (re.++  (str.to.re "\u{20}") (re.++  (str.to.re "\u{20}") (re.++  (str.to.re "\u{20}") (re.++  (str.to.re "\u{20}") (re.++  (str.to.re "\u{20}") (re.++  (str.to.re "\u{20}") (re.++  (str.to.re "\u{20}") (re.++  (str.to.re "\u{20}") (re.++  (str.to.re "\u{20}") (re.++  (str.to.re "\u{20}") (re.++  (str.to.re "\u{20}") (re.++  (str.to.re "\u{20}") (re.++  (str.to.re "\u{20}") (re.++  (str.to.re "\u{20}") (re.++  (str.to.re "\u{20}") (re.++  (str.to.re "\u{20}") (re.++  (re.union (str.to_re "")  (re.++  (str.to.re "\u{28}")  (str.to_re ""))) (re.++  (str.to_re "\u{0A}") (re.++  (str.to.re "\u{20}") (re.++  (str.to.re "\u{20}") (re.++  (str.to.re "\u{20}") (re.++  (str.to.re "\u{20}") (re.++  (str.to.re "\u{20}") (re.++  (str.to.re "\u{20}") (re.++  (str.to.re "\u{20}") (re.++  (str.to.re "\u{20}") (re.++  (str.to.re "\u{20}") (re.++  (str.to.re "\u{20}") (re.++  (str.to.re "\u{20}") (re.++  (str.to.re "\u{20}") (re.++  (str.to.re "\u{20}") (re.++  (str.to.re "\u{20}") (re.++  (str.to.re "\u{20}") (re.++  (str.to.re "\u{20}") (re.++  (str.to.re "\u{20}") (re.++  (str.to.re "\u{20}") (re.++  (str.to.re "\u{20}") (re.++  (str.to.re "\u{20}") (re.++  (str.to.re "\u{20}") (re.++  (str.to.re "\u{20}") (re.++  (str.to.re "\u{20}") (re.++  (str.to.re "\u{20}") (re.++  (str.to.re "\u{20}") (re.++  (str.to.re "\u{20}") (re.++  (str.to.re "\u{20}") (re.++  (str.to.re "\u{20}") (re.++  (str.to.re "\u{20}") (re.++  (str.to.re "\u{20}") (re.++  (str.to.re "\u{20}") (re.++  (str.to.re "\u{20}") (re.++  (str.to.re "\u{20}") (re.++  (str.to.re "\u{20}") (re.++  (str.to.re "\u{20}") (re.++  (str.to.re "\u{20}")  (str.to.re "\u{20}"))))))))))))))))))))))))))))))))))))))))))))))))))))))))))))))))))))))))))))))))))))))))))))))))))))))))))))))))))))) (re.*  (re.union  (str.to.re "\u{20}") (re.union (re.range "\u{30}" "\u{39}") (re.union  (str.to.re "\u{2c}") (re.union  (str.to.re "\u{3d}") (re.range "\u{61}" "\u{7a}"))))) ))) )))
(check-sat)
(get-model)