TCS_Benchmarks/redos_fix/corpus2_output_distinct_4925_4924_10_0.txt
(\s*)([ 0-9,=a-z]*)
(\s*)(\n                                     (([0-9.a-z_]*))\s*\n                                     \({0,1}\n                                     )([ 0-9,=a-z]*)